SYSTEM = Si - local optimisation
PREC = Normal
ENCUT = 320.0
EDIFF = 1e-4
IBRION = 2
ISIF = 3
NSW = 0
ISMEAR = 1 ; SIGMA = 0.060
POTIM = 0.020
ISTART = 0
LCHARG = FALSE
LWAVE = FALSE
KSPACING = 0.828
