SYSTEM = SnO2
PREC = Normal
EDIFF = 1e-3
IBRION = 2
ISIF = 2
NSW = 60
ISMEAR = 1
SIGMA = 0.06
POTIM = 0.20
LCHARG = FALSE
LWAVE = FALSE
#Crude optimisation
EDIFFG = 1e-2
KSPACING = 1.256
LREAL = A
ALGO = Fast
