SYSTEM = CH4
PREC = LOW
EDIFF = 1e-3
IBRION = 2
ISIF = 3
NSW = 70
ISMEAR = 1 
SIGMA = 0.10
POTIM = 0.50
ISTART = 0
#Crude optimisation
EDIFFG = -2e-1
LCHARG = FALSE
LWAVE = FALSE
KSPACING = 1.256
LREAL = A
ALGO = Fast
NPAR = 2
