PREC = Normal
ENCUT = 400
EDIFF = 1e-4
IBRION = 2
ISIF = 3
NSW = 70
ISMEAR = 0
SIGMA = 0.060
POTIM = 0.250
ISTART = 0
LCHARG = FALSE
LWAVE = FALSE
#Crude optimisation
EDIFFG = -2e-2
KSPACING = 0.618
#ALGO = Fast
