INCAR created by Atomic Simulation Environment
 ENCUT =600
 POTIM = 0.25
 SIGMA = 0.060000
 EDIFF = 1.00e-05
 EDIFFG = -1.00e-04
 GGA = PE
 LCHARG = .FALSE.
 LWAVE = .FALSE.
 PREC = Normal
 IBRION = 2
 NSW = 40
 ISIF = 3
 ISMEAR = 0
 ISTART = 0
 NPAR = 6
 IVDW = 10
 ISYM = 0
