SYSTEM = CH4
PREC = N
EDIFF = 1e-4
ENCUT = 600
#EDIFFG = 1e-2
IBRION = 1
ISIF = 3
NSW = 60
ISMEAR = 1
SIGMA = 0.05
POTIM = 0.60
ISTART = 0
LCHARG = FALSE
LWAVE = FALSE
KSPACING = 0.942
LREAL = A
ALGO = Fast
NPAR = 2
