SYSTEM = Si - local optimisation
PREC = Accurate
EDIFF = 1e-4
IBRION = 2
ISIF = 3
NSW = 40
ISMEAR = 0
SIGMA = 0.050
POTIM = 0.250
ISTART = 0
LCHARG = FALSE
LWAVE = FALSE
#Crude optimisation
EDIFFG = 1e-3
KSPACING = 0.314
#ALGO = Fast
NCORE= 4
