IBRION = 2
ISIF = 3
NSW = 0
ISMEAR = 0
SIGMA = 0.050
LCHARG = FALSE
LWAVE = FALSE
EDIFFG = 1e-3
KSPACING = 0.314
