    PREC = Accurate   # Precision large enough for accurte descripiton of the wavefunction
   EDIFF = 1E-6       # well converged electronic structure
   LWAVE = .TRUE.     # We need the WAVECARs
  NBANDS = 388        # make sure we have the same number of bands. 
                      # Also be large enough, since the last few bands are not very accurate.
  LORBIT = 11         # we will need PROCAR to analyze the results
    NELM = 120        # large enouth so that the electronic structure can converge the require precision
