Mo  S Se  W 
 1.0000000000000000
     3.1850000000000001    0.0000000000000000    0.0000000000000000
    -1.5925000000000000    2.7582909999999998    0.0000000000000000
     0.0000000000000000    0.0000000000000000   35.0000000000000000
 Mo  S   Se  W  
   2   4   2   1
Direct
  0.6421797299999999  0.3611016300000000  0.2038179500000000
  0.6729576000000000  0.3233529600000000  0.8090528100000000
  0.9755039700000000  0.0277684100000000  0.1634753500000000
  0.9755117200000000  0.0277832000000000  0.2439599500000000
  0.6760277600000000  0.3256266000000000  0.4005163300000000
  0.6760499000000000  0.3256090700000000  0.4839290800000001
  0.0062924500000000  0.9900234400000000  0.7645278200000000
  0.0062933500000000  0.9900134400000000  0.8534419300000000
  0.0093642900000000  0.9922937600000000  0.4422702600000000
