Al  N 
 1.0000000000000000
     6.1137361392324996    0.0000000000000000    0.0000000000000000
    -1.7243621737613815   -4.1384501206665236    0.0000000000000000
     0.0000000000000000    0.0000000000000000   -3.3822423005037452
 Al  N  
   1  15
Direct
  0.0000000000000000 -0.0000000000000000  0.4999999999999999
 -0.1162990921419017 -0.0263375005955869  0.0622087197261625
 -0.0017281196180377  0.2544925282091122 -0.0494466072343535
 -0.1055169848812463  0.2326791894828394  0.2604079701103130
  0.0655565724530710 -0.3328922497190502  0.6726497363596844
  0.1224781901856575 -0.2942251923701859  1.0731164639415773
 -0.1888635942775005  0.2557111492317787 -0.2351738770120715
  0.2880219020026287 -0.3703806733284928  0.7481830507379151
  0.1777768944775627 -0.5288682974467952  1.0944487143630435
  0.1543577565538601  0.3794211801133012 -0.3422044139876224
  0.1893885324067439 -0.3558033176016655  0.4036289269687313
  0.3603005056614914 -0.2947035548538932  0.0842128092578898
 -0.1079223236662913 -0.5324672896527768  0.4878608627872932
  0.3010290294252566 -0.0445005702809831  0.0072994052366109
  0.3787436389233071  0.0611196528643326 -0.3494014847171952
  0.3852174186039212 -0.5666415436720154  0.0142199031491030
